src/main/scala/pcp/ex
/Library/Java/JavaVirtualMachines/adoptopenjdk-8.jdk/Contents/Home/bin/java -Xss500m -javaagent:/Applications/IntelliJ IDEA.app/Contents/lib/idea_rt.jar=61056:/Applications/IntelliJ IDEA.app/Contents/bin -Dfile.encoding=UTF-8 -classpath /Library/Java/JavaVirtualMachines/adoptopenjdk-8.jdk/Contents/Home/jre/lib/charsets.jar:/Library/Java/JavaVirtualMachines/adoptopenjdk-8.jdk/Contents/Home/jre/lib/ext/cldrdata.jar:/Library/Java/JavaVirtualMachines/adoptopenjdk-8.jdk/Contents/Home/jre/lib/ext/dnsns.jar:/Library/Java/JavaVirtualMachines/adoptopenjdk-8.jdk/Contents/Home/jre/lib/ext/jaccess.jar:/Library/Java/JavaVirtualMachines/adoptopenjdk-8.jdk/Contents/Home/jre/lib/ext/localedata.jar:/Library/Java/JavaVirtualMachines/adoptopenjdk-8.jdk/Contents/Home/jre/lib/ext/nashorn.jar:/Library/Java/JavaVirtualMachines/adoptopenjdk-8.jdk/Contents/Home/jre/lib/ext/sunec.jar:/Library/Java/JavaVirtualMachines/adoptopenjdk-8.jdk/Contents/Home/jre/lib/ext/sunjce_provider.jar:/Library/Java/JavaVirtualMachines/adoptopenjdk-8.jdk/Contents/Home/jre/lib/ext/sunpkcs11.jar:/Library/Java/JavaVirtualMachines/adoptopenjdk-8.jdk/Contents/Home/jre/lib/ext/zipfs.jar:/Library/Java/JavaVirtualMachines/adoptopenjdk-8.jdk/Contents/Home/jre/lib/jce.jar:/Library/Java/JavaVirtualMachines/adoptopenjdk-8.jdk/Contents/Home/jre/lib/jfr.jar:/Library/Java/JavaVirtualMachines/adoptopenjdk-8.jdk/Contents/Home/jre/lib/jsse.jar:/Library/Java/JavaVirtualMachines/adoptopenjdk-8.jdk/Contents/Home/jre/lib/management-agent.jar:/Library/Java/JavaVirtualMachines/adoptopenjdk-8.jdk/Contents/Home/jre/lib/resources.jar:/Library/Java/JavaVirtualMachines/adoptopenjdk-8.jdk/Contents/Home/jre/lib/rt.jar:/Users/aomori/repos/pcpsolver/target/scala-3.2.0/classes:/Users/aomori/Library/Caches/Coursier/v1/https/repo1.maven.org/maven2/org/scala-lang/scala-library/2.13.8/scala-library-2.13.8.jar:/Users/aomori/Library/Caches/Coursier/v1/https/repo1.maven.org/maven2/org/scala-lang/scala3-library_3/3.2.0/scala3-library_3-3.2.0.jar:/Users/aomori/repos/pcpsolver/lib/com.microsoft.z3.jar pcp.SubstringSolver
start solve
sat
Some(List(1, 1, 1, 1, 1, 1, 2, 2, 2, 2, 2, 2, 3, 3, 3))
Some(Map(1 -> 6, 2 -> 6, 3 -> 3))
111111111111111111101010101010000
111111111111111111111111000000000
diff: 11
start solve
sat
Some(List(0, 0, 0, 0, 0, 0, 0, 0, 0, 0, 0, 0, 0, 0, 0, 0, 0, 0, 0, 0, 0, 0, 0, 0, 0, 0, 0, 0, 0, 0, 0, 0, 0, 2, 0, 2, 0, 2, 0, 2, 0, 2, 0, 2, 0, 2, 0, 2, 1, 2, 1, 2, 1, 2, 1, 2, 1, 2, 1, 2, 1, 2, 1, 2, 1, 2, 1, 2, 1, 2, 1, 2, 1, 2, 1, 2, 1, 2, 1, 2, 1, 2, 1, 2, 1, 2, 1, 2, 1, 2, 1, 2, 1, 2, 1, 2, 2, 0, 2, 2, 0, 2, 2, 0, 2, 2, 0, 2, 2, 0, 2, 2, 0, 2, 2, 0, 2, 2, 0, 2))
Some(Map(0 -> 48, 1 -> 24, 2 -> 48))
111111111111111111111111111111111111111111111111111111111111111111111111111111111111111111111111111101111011110111101111011110111101111011110111101111011110111101111011110111101111011110111101111011110111101111011110111101111011110111101111011110111101111010111101011110101111010111101011110101111010111101011110
110110110110110110110110110110110110110110110110110110110110110110110110110110110110110110110110110111110111110111110111110111110111110111110111111111111111111111111111111111111111111111111111111111111111111111111111111111111111111111111111111110111111110111111110111111110111111110111111110111111110111111110111
diff: 01
start solve
sat
Some(List(2, 1, 0, 2, 1, 2, 3, 1, 0, 2))
Some(Map(0 -> 2, 1 -> 3, 2 -> 4, 3 -> 1))
101111111011110011111110
111111011111110001110111
diff: 10
start solve
sat
Some(List(2, 0, 0, 0, 0, 0, 0, 0, 0, 0, 0, 0, 0, 0, 0, 0, 0, 0, 1, 1, 0, 0, 1, 2, 0, 1, 2, 0, 1, 2, 0, 1, 2, 0, 2, 0, 2, 0, 2, 0, 2, 0, 2, 0, 2, 0, 2, 0, 2, 0, 2, 0, 2, 0, 2, 0, 2, 0, 2, 0, 2, 0, 2, 0, 2, 0, 2, 0, 2, 0, 2, 0, 2, 0, 2, 0, 2, 0, 2, 1, 0, 0, 2, 1, 0, 0, 2, 1, 0, 0, 2, 1, 1, 2, 0, 2, 2, 0, 2, 2, 0, 2, 2, 0, 2, 2, 0, 2, 2, 0, 2, 2, 1, 0, 1, 0, 1, 0, 1, 0, 1, 0, 1, 0, 1, 0, 1, 0, 1, 0, 2, 2, 1, 0, 2, 2, 1, 0, 2, 2, 1, 0, 2, 2, 1, 0, 2, 2, 1, 0, 2, 2, 1, 0, 2, 2, 1, 1, 0, 2, 2, 1, 1, 0, 2, 2, 1, 1, 0, 2, 2, 1, 1, 0, 2, 2, 1, 2, 1, 2, 2, 2, 2, 2, 2, 2, 2, 2, 1, 1))
Some(Map(0 -> 76, 1 -> 38, 2 -> 76))
10111111111111111111111111111111111111111111111111111111111111111111101111111011111110111111101111011110111101111011110111101111011110111101111011110111101111011110111101111011110111101111011110111101111011110111111111101111111111011111111110111111101111010111101011110101111010111101011110101111111111111111111111111111111111111111111111111111111010111111101011111110101111111010111111101011111110101111111010111111111101011111111110101111111111010111111111101011110111101010101010101010111111
11111011011011011011011011011011011011011011011011011011110110111111011111101111110111111011111011111011111011111011111011111011111011111011111011111011111011111011111011111011111011111011111011111011111011111011111011111011111101101111110110111111011011111111110111111110111111110111111110111111110111111110111111111011101110111011101110111011101110111111111011111111101111111110111111111011111111101111111110111111111101111111111011111111110111111111101111111111111111111111111111111111111111
diff: 111
